N = 9;
Capacity = 15;
Demand = [7, 5, 6, 10, 8, 6, 5, 5, 1];
Distance = [|
  0, 66, 44, 33, 18, 41, 20, 47, 16, 48
| 66, 0, 82, 91, 75, 102, 72, 76, 50, 49
| 44, 82, 0, 26, 28, 36, 25, 9, 48, 36
| 33, 91, 26, 0, 16, 12, 19, 34, 45, 55
| 18, 75, 28, 16, 0, 27, 5, 33, 29, 45
| 41, 102, 36, 12, 27, 0, 30, 45, 55, 67
| 20, 72, 25, 19, 5, 30, 0, 29, 28, 40
| 47, 76, 9, 34, 33, 45, 29, 0, 48, 29
| 16, 50, 48, 45, 29, 55, 28, 48, 0, 40
| 48, 49, 36, 55, 45, 67, 40, 29, 40, 0
|];
